
Starting CP-SAT solver v9.15.6755
Parameters: random_seed: 2026073231 max_time_in_seconds: 2500 log_search_progress: true cp_model_presolve: true linearization_level: 2 num_search_workers: 4 cp_model_probing_level: 2 symmetry_level: 2

Initial satisfaction model '': (model_fingerprint: 0x99d0b49d5df5e7df)
#Variables: 724 (608 primary variables)
  - 724 Booleans in [0,1]
#kBoolAnd: 110 (#enforced: 110) (#literals: 330)
#kBoolOr: 110 (#enforced: 110) (#literals: 220)
#kExactlyOne: 87 (#literals: 261)
#kLinear1: 32 (#enforced: 6)
#kLinear2: 336 (#enforced: 336) (#complex_domain: 110)
#kLinear3: 1'600 (#enforced: 6)
#kLinearN: 1'132 (#enforced: 243) (#terms: 9'111)

Starting presolve at 0.00s
  4.47e-04s  0.00e+00d  [DetectDominanceRelations] 
  5.79e-03s  0.00e+00d  [PresolveToFixPoint] #num_loops=3 #num_dual_strengthening=1 
  2.49e-05s  0.00e+00d  [ExtractEncodingFromLinear] #potential_supersets=78 
  2.11e-04s  0.00e+00d  [DetectDuplicateColumns] 
  7.03e-05s  0.00e+00d  [DetectDuplicateConstraints] #duplicates=5 
[Symmetry] Graph for symmetry has 4'870 nodes and 15'740 arcs.
[Symmetry] Symmetry computation done. time: 0.0010125 dtime: 0.00218984
[SAT presolve] num removable Booleans: 220 / 626
[SAT presolve] num trivial clauses: 0
[SAT presolve] [0s] clauses:2'740 literals:7'444 vars:506 one_side_vars:66 simple_definition:1 singleton_clauses:0
[SAT presolve] [0.000170339s] clauses:2'739 literals:7'437 vars:506 one_side_vars:66 simple_definition:1 singleton_clauses:0
[SAT presolve] [0.000445474s] clauses:2'418 literals:6'932 vars:389 one_side_vars:68 simple_definition:24 singleton_clauses:0
  9.98e-05s  0.00e+00d  [DetectDuplicateConstraintsWithDifferentEnforcements] #without_enforcements=1 
  3.96e-03s  2.64e-03d  [Probe] #probed=1'300 #fixed_bools=16 #equiv=9 #new_binary_clauses=832 
  3.89e-04s  3.38e-04d  [MaxClique] Merged 657 constraints with 1'416 literals into 593 constraints with 1'306 literals
  5.99e-04s  0.00e+00d  [DetectDominanceRelations] 
  2.23e-03s  0.00e+00d  [PresolveToFixPoint] #num_loops=1 #num_dual_strengthening=1 
  9.20e-04s  0.00e+00d  [ProcessAtMostOneAndLinear] 
  7.37e-05s  0.00e+00d  [DetectDuplicateConstraints] #duplicates=10 
  5.52e-05s  0.00e+00d  [DetectDuplicateConstraintsWithDifferentEnforcements] 
  1.33e-03s  7.82e-05d  [DetectDominatedLinearConstraints] #relevant_constraints=830 #num_inclusions=397 #num_redundant=7 
  8.70e-05s  0.00e+00d  [DetectDifferentVariables] 
  6.03e-04s  9.03e-05d  [ProcessSetPPC] #relevant_constraints=3'175 #num_inclusions=241 
  2.19e-04s  3.42e-05d  [TransformClausesToExactlyOne] #num_amos=586 #num_clauses=1'767 #num_checked=1'767 
  3.59e-05s  0.00e+00d  [DetectEncodedComplexDomains] 
  2.29e-05s  1.60e-07d  [FindAlmostIdenticalLinearConstraints] #num_tested_pairs=2 
  6.97e-04s  1.40e-03d  [FindBigAtMostOneAndLinearOverlap] 
  1.09e-03s  1.18e-03d  [FindBigVerticalLinearOverlap] #blocks=3 #saved_nz=99 
  2.42e-04s  6.51e-04d  [FindBigHorizontalLinearOverlap] #linears=462 
  2.39e-04s  2.79e-05d  [MergeClauses] #num_collisions=10 #num_merges=10 #num_saved_literals=38 
  5.91e-04s  0.00e+00d  [DetectDominanceRelations] 
  2.15e-03s  0.00e+00d  [PresolveToFixPoint] #num_loops=2 #num_dual_strengthening=1 
  5.77e-04s  0.00e+00d  [DetectDominanceRelations] 
  2.08e-03s  0.00e+00d  [PresolveToFixPoint] #num_loops=1 #num_dual_strengthening=1 
  8.96e-05s  0.00e+00d  [DetectDuplicateColumns] 
  6.05e-05s  0.00e+00d  [DetectDuplicateConstraints] 
[Symmetry] Graph for symmetry has 4'451 nodes and 13'933 arcs.
[Symmetry] Symmetry computation done. time: 0.00077208 dtime: 0.00156487
[SAT presolve] num removable Booleans: 102 / 484
[SAT presolve] num trivial clauses: 0
[SAT presolve] [0s] clauses:2'323 literals:6'701 vars:458 one_side_vars:142 simple_definition:30 singleton_clauses:0
[SAT presolve] [0.000176412s] clauses:2'323 literals:6'542 vars:458 one_side_vars:154 simple_definition:80 singleton_clauses:0
[SAT presolve] [0.000264874s] clauses:2'195 literals:6'240 vars:455 one_side_vars:179 simple_definition:66 singleton_clauses:0
  1.33e-04s  0.00e+00d  [DetectDuplicateConstraintsWithDifferentEnforcements] 
  3.22e-03s  1.63e-03d  [Probe] #probed=1'284 #new_binary_clauses=292 
  2.90e-04s  2.27e-04d  [MaxClique] Merged 513 constraints with 1'087 literals into 505 constraints with 1'081 literals
  5.64e-04s  0.00e+00d  [DetectDominanceRelations] 
  2.14e-03s  0.00e+00d  [PresolveToFixPoint] #num_loops=1 #num_dual_strengthening=1 
  8.50e-04s  0.00e+00d  [ProcessAtMostOneAndLinear] 
  8.11e-05s  0.00e+00d  [DetectDuplicateConstraints] 
  5.95e-05s  0.00e+00d  [DetectDuplicateConstraintsWithDifferentEnforcements] 
  6.15e-04s  5.69e-05d  [DetectDominatedLinearConstraints] #relevant_constraints=817 #num_inclusions=297 #num_redundant=1 
  9.33e-05s  0.00e+00d  [DetectDifferentVariables] 
  5.52e-04s  7.72e-05d  [ProcessSetPPC] #relevant_constraints=3'084 #num_inclusions=117 
  2.08e-04s  3.27e-05d  [TransformClausesToExactlyOne] #num_amos=504 #num_clauses=1'710 #num_checked=1'710 
  4.45e-05s  0.00e+00d  [DetectEncodedComplexDomains] 
  3.18e-05s  2.50e-07d  [FindAlmostIdenticalLinearConstraints] #num_tested_pairs=3 
  6.50e-04s  1.18e-03d  [FindBigAtMostOneAndLinearOverlap] 
  9.99e-04s  1.06e-03d  [FindBigVerticalLinearOverlap] 
  2.40e-04s  6.05e-04d  [FindBigHorizontalLinearOverlap] #linears=462 
  2.42e-04s  2.63e-05d  [MergeClauses] #num_collisions=74 #num_merges=74 #num_saved_literals=189 
  5.90e-04s  0.00e+00d  [DetectDominanceRelations] 
  2.15e-03s  0.00e+00d  [PresolveToFixPoint] #num_loops=1 #num_dual_strengthening=1 
  5.78e-04s  0.00e+00d  [DetectDominanceRelations] 
  2.12e-03s  0.00e+00d  [PresolveToFixPoint] #num_loops=1 #num_dual_strengthening=1 
  1.40e-04s  0.00e+00d  [DetectDuplicateColumns] 
  7.27e-05s  0.00e+00d  [DetectDuplicateConstraints] 
[Symmetry] Graph for symmetry has 4'260 nodes and 13'209 arcs.
[Symmetry] Symmetry computation done. time: 0.000725295 dtime: 0.00144348
[SAT presolve] num removable Booleans: 99 / 481
[SAT presolve] num trivial clauses: 0
[SAT presolve] [0s] clauses:2'184 literals:6'216 vars:455 one_side_vars:179 simple_definition:66 singleton_clauses:0
[SAT presolve] [0.000155984s] clauses:2'184 literals:6'216 vars:455 one_side_vars:179 simple_definition:66 singleton_clauses:0
[SAT presolve] [0.000199947s] clauses:2'184 literals:6'216 vars:455 one_side_vars:179 simple_definition:66 singleton_clauses:0
  1.24e-04s  0.00e+00d  [DetectDuplicateConstraintsWithDifferentEnforcements] 
  3.18e-03s  1.63e-03d  [Probe] #probed=1'284 #new_binary_clauses=291 
  3.05e-04s  2.26e-04d  [MaxClique] Merged 503 constraints with 1'073 literals into 502 constraints with 1'072 literals
  6.22e-04s  0.00e+00d  [DetectDominanceRelations] 
  2.21e-03s  0.00e+00d  [PresolveToFixPoint] #num_loops=1 #num_dual_strengthening=1 
  8.63e-04s  0.00e+00d  [ProcessAtMostOneAndLinear] 
  8.43e-05s  0.00e+00d  [DetectDuplicateConstraints] 
  6.55e-05s  0.00e+00d  [DetectDuplicateConstraintsWithDifferentEnforcements] 
  5.86e-04s  5.60e-05d  [DetectDominatedLinearConstraints] #relevant_constraints=817 #num_inclusions=293 #num_redundant=1 
  1.03e-04s  0.00e+00d  [DetectDifferentVariables] 
  5.47e-04s  7.60e-05d  [ProcessSetPPC] #relevant_constraints=3'083 #num_inclusions=110 
  2.26e-04s  3.27e-05d  [TransformClausesToExactlyOne] #num_amos=502 #num_clauses=1'712 #num_checked=1'712 
  5.64e-05s  0.00e+00d  [DetectEncodedComplexDomains] 
  3.98e-05s  2.50e-07d  [FindAlmostIdenticalLinearConstraints] #num_tested_pairs=3 
  6.23e-04s  1.14e-03d  [FindBigAtMostOneAndLinearOverlap] 
  1.03e-03s  9.90e-04d  [FindBigVerticalLinearOverlap] #blocks=1 #saved_nz=37 
  2.47e-04s  5.35e-04d  [FindBigHorizontalLinearOverlap] #linears=460 
  2.66e-04s  2.64e-05d  [MergeClauses] #num_collisions=75 #num_merges=75 #num_saved_literals=191 
  6.35e-04s  0.00e+00d  [DetectDominanceRelations] 
  2.24e-03s  0.00e+00d  [PresolveToFixPoint] #num_loops=2 #num_dual_strengthening=1 
  2.06e-05s  0.00e+00d  [MergeNoOverlap] 
  1.84e-05s  0.00e+00d  [MergeNoOverlap2D] 

Presolve summary:
  - 43 affine relations were detected.
  - rule 'TODO dual: only one blocking constraint?' was applied 833 times.
  - rule 'TODO linear inclusion: superset is equality' was applied 90 times.
  - rule 'affine: new relation' was applied 43 times.
  - rule 'at_most_one: removed literals' was applied 61 times.
  - rule 'at_most_one: size one' was applied 60 times.
  - rule 'at_most_one: transformed into max clique' was applied 3 times.
  - rule 'bool_or: implications' was applied 72 times.
  - rule 'bool_or: only one literal' was applied 12 times.
  - rule 'bool_or: removed enforcement literal' was applied 557 times.
  - rule 'deductions: 856 stored' was applied 1 time.
  - rule 'duplicate: merged rhs of linear constraint' was applied 14 times.
  - rule 'duplicate: removed constraint' was applied 15 times.
  - rule 'duplicate: removed enforced constraint' was applied 1 time.
  - rule 'enforcement: false literal' was applied 38 times.
  - rule 'enforcement: true literal' was applied 12 times.
  - rule 'exactly_one: removed literals' was applied 32 times.
  - rule 'exactly_one: satisfied' was applied 3 times.
  - rule 'exactly_one: singleton' was applied 2 times.
  - rule 'exactly_one: size two' was applied 30 times.
  - rule 'exactly_one: x and not(x)' was applied 6 times.
  - rule 'incompatible linear: add implication' was applied 126 times.
  - rule 'linear + amo: empty after processing' was applied 6 times.
  - rule 'linear + amo: extracted enforcement literal' was applied 50 times.
  - rule 'linear inclusion: redundant containing constraint' was applied 3 times.
  - rule 'linear inclusion: redundant included constraint' was applied 3 times.
  - rule 'linear inclusion: sparsify superset' was applied 3 times.
  - rule 'linear matrix: common vertical rectangle' was applied 4 times.
  - rule 'linear1: always true' was applied 4 times.
  - rule 'linear1: x in domain' was applied 26 times.
  - rule 'linear2: convert ax + by != cte to clauses' was applied 268 times.
  - rule 'linear2: convert implied ax + by == cte to clauses' was applied 114 times.
  - rule 'linear2: implied ax + by = cte has only one solution' was applied 9 times.
  - rule 'linear: always true' was applied 406 times.
  - rule 'linear: empty' was applied 9 times.
  - rule 'linear: enforcement literal in expression' was applied 8 times.
  - rule 'linear: extracted at most one (max)' was applied 1 time.
  - rule 'linear: fixed or dup variables' was applied 888 times.
  - rule 'linear: negative clause' was applied 1'297 times.
  - rule 'linear: negative reified and' was applied 78 times.
  - rule 'linear: never in domain' was applied 6 times.
  - rule 'linear: positive at most one' was applied 26 times.
  - rule 'linear: reduced variable domains' was applied 5 times.
  - rule 'linear: remapped using affine relations' was applied 36 times.
  - rule 'presolve: 82 unused variables removed.' was applied 1 time.
  - rule 'presolve: iteration' was applied 3 times.
  - rule 'probing: bool_or reduced to implication' was applied 23 times.
  - rule 'probing: simplified clauses' was applied 10 times.
  - rule 'setppc: bool_or in at_most_one' was applied 7 times.
  - rule 'setppc: removed dominated constraints' was applied 88 times.
  - rule 'variables: both boolean and its negation fix the same variable' was applied 4 times.
  - rule 'variables: detect half reified value encoding' was applied 8 times.

Presolved satisfaction model '': (model_fingerprint: 0x52c9444d83c11bbc)
#Variables: 481 (412 primary variables)
  - 481 Booleans in [0,1]
#kAtMostOne: 32 (#literals: 132)
#kBoolAnd: 265 (#enforced: 265) (#literals: 735)
#kBoolAndClauses: 75 (#enforced: 75 #multi: 75) (#literals: 341)
#kBoolOr: 1'562 (#literals: 4'740)
#kExactlyOne: 52 (#literals: 192)
#kLinearN: 815 (#enforced: 116) (#terms: 5'692)
[Symmetry] Graph for symmetry has 4'010 nodes and 13'146 arcs.
[Symmetry] Symmetry computation done. time: 0.000591066 dtime: 0.00142548

Preloading model.
#Model   0.07s var:481/481 constraints:2801/2801

Starting search at 0.07s with 4 workers.
3 full problem subsolvers: [default_lp, max_lp, no_lp]
1 first solution subsolver: [fj]
2 interleaved subsolvers: [feasibility_pump, rins/rens]
2 helper subsolvers: [neighborhood_helper, synchronization_agent]

#Model  13.09s var:480/481 constraints:2786/2801
#Model  13.96s var:479/481 constraints:2784/2801
#Model  26.92s var:478/481 constraints:2784/2801
#Model 106.39s var:477/481 constraints:2783/2801
#Model 176.99s var:476/481 constraints:2781/2801
#Model 177.60s var:475/481 constraints:2781/2801
#Model 202.77s var:474/481 constraints:2781/2801
#Model 212.28s var:473/481 constraints:2763/2801
#Model 241.82s var:472/481 constraints:2763/2801
#Model 257.30s var:471/481 constraints:2763/2801
#Model 526.23s var:468/481 constraints:2744/2801
#Model 629.00s var:467/481 constraints:2743/2801
#Model 708.39s var:466/481 constraints:2723/2801
#Model 752.51s var:465/481 constraints:2721/2801
#Model 761.87s var:464/481 constraints:2718/2801
#Model 763.08s var:463/481 constraints:2699/2801
#Model 764.46s var:461/481 constraints:2666/2801
#Model 765.93s var:460/481 constraints:2650/2801
#Model 766.10s var:456/481 constraints:2586/2801
#Model 766.24s var:455/481 constraints:2566/2801
#Model 766.37s var:454/481 constraints:2553/2801
#Model 766.70s var:449/481 constraints:2474/2801
#Done  766.72s no_lp

Task timing                   n [     min,      max]      avg      dev     time         n [     min,      max]      avg      dev    dtime
        'default_lp':         1 [  12.78m,   12.78m]   12.78m   0.00ns   12.78m         2 [  1.74ms,   20.04m]   10.02m   10.02m   20.04m
  'feasibility_pump':      4581 [503.06us, 101.41ms] 953.12us   1.50ms    4.37s      4580 [273.28us, 125.21ms] 300.56us   1.85ms    1.38s
                'fj':      4581 [ 70.07ms, 120.25ms]  92.67ms   4.93ms    7.08m      4581 [100.00ms, 100.15ms] 100.02ms  14.46us    7.64m
            'max_lp':         1 [  12.78m,   12.78m]   12.78m   0.00ns   12.78m         2 [ 60.75ms,   26.05m]   13.03m   13.03m   26.05m
             'no_lp':         1 [  12.78m,   12.78m]   12.78m   0.00ns   12.78m         2 [  1.41ms,   34.31m]   17.16m   17.16m   34.31m
         'rins/rens':      4582 [ 14.26ms, 118.46ms]  73.61ms  27.31ms    5.62m      4581 [351.67us, 100.30ms]  68.69ms  36.73ms    5.24m

Search stats     Bools  Conflicts    Branches  Restarts  BacktrackToRoot   Backtrack   BoolPropag  IntegerPropag
  'default_lp':    481    118'638   6'815'608       572        1'159'682   1'564'961   67'867'683     66'737'478
      'max_lp':    481     40'293   9'603'730       221        1'486'540   1'804'798   89'814'162     97'260'924
       'no_lp':    481  9'760'246  14'405'229    36'868          411'440  10'145'552  796'375'205    160'542'021

SAT formula      Fixed  Equiv  Total  VarLeft  BinaryClauses  PermanentClauses  TemporaryClauses
  'default_lp':     18      8    481      455          2'844            22'377             2'224
      'max_lp':     23      8    481      450          2'726            20'785             1'169
       'no_lp':    257      9    481      215          3'544            43'878             4'657

SAT stats        ClassicMinim   LitRemoved  LitRemovedBinary   LitLearned  LitForgotten   Subsumed
  'default_lp':       101'547    1'125'647           473'744    2'637'125     1'384'806     48'204
      'max_lp':        32'094      288'502           171'555      670'776       155'487     20'812
       'no_lp':     8'661'677  139'021'289        48'846'175  230'329'432   181'800'840  2'579'760

Vivification       Clauses  Decisions  LitTrue  Subsumed  LitRemoved  DecisionReused  Conflicts
  'default_lp':  1'263'739  6'491'049        5    16'333     172'340         359'658      2'195
      'max_lp':  1'577'601  9'369'571        9    17'770     179'692         372'461      2'085
       'no_lp':    337'988  2'778'076        3    28'101     346'386          91'358      1'840

Clause deletion    at_true  l_and_not(l)  to_binary  sub_conflict  sub_extra  sub_decisions  sub_eager  sub_vivify  sub_probing  sub_inpro  blocked  eliminated  forgotten    promoted  conflicts
    'default_lp':    6'131            10         27        47'340        350          1'917        864      16'333        8'419     19'534        0           0     45'970     220'035    118'638
        'max_lp':    7'818            16         22        20'574         98            570        238      17'770        7'037     11'977        0           0      6'163      52'038     40'293
         'no_lp':   34'208         2'474         71     2'534'865     21'373        105'615     44'895      28'101       24'361    134'083        0           0  6'786'870  22'262'202  9'760'246

Lp stats         Component  Iterations  AddedCuts  OPTIMAL  DUAL_F.  DUAL_U.
  'default_lp':          1  14'981'753     38'055  144'165        2   81'880
      'max_lp':          1   7'339'255     24'964    9'454   14'867   12'271

Lp dimension        Final dimension of first component
  'default_lp':    272 rows, 339 columns, 2466 entries
      'max_lp':  1972 rows, 481 columns, 49560 entries

Lp debug         CutPropag  CutEqPropag  Adjust  Overflow      Bad  BadScaling
  'default_lp':          0           33  81'876         0  945'536           0
      'max_lp':          0          202  12'269         0  566'842           0

Lp pool          Constraints  Updates  Simplif  Merged  Shortened  Split  Strengthened      Cuts/Call
  'default_lp':        9'817    7'933        0       0         23      0             0  38'055/40'344
      'max_lp':       13'117    7'630        0       1         35      0           760  24'964/32'720

Lp Cut           default_lp  max_lp
         CG_FF:         596      76
          CG_K:         311       6
         CG_KL:         300       3
          CG_R:         677      40
        Clique:           -     172
      MIR_1_FF:         317     408
       MIR_1_K:          62       7
      MIR_1_KL:         215       3
       MIR_1_R:         295     151
     MIR_1_RLT:           -   3'301
      MIR_2_FF:         304     225
       MIR_2_K:          48      27
      MIR_2_KL:         151      24
       MIR_2_R:         298     158
      MIR_3_FF:         180      57
       MIR_3_K:          32       1
      MIR_3_KL:          55       3
       MIR_3_R:         151      54
      MIR_4_FF:          89      16
       MIR_4_K:          10       5
      MIR_4_KL:          34       3
       MIR_4_R:          88      30
      MIR_5_FF:          36       5
       MIR_5_K:           6       -
      MIR_5_KL:          13       1
       MIR_5_R:          44      28
      MIR_6_FF:          16       1
       MIR_6_K:           4       -
      MIR_6_KL:           2       -
       MIR_6_R:          30      33
  ZERO_HALF_FF:         240     274
   ZERO_HALF_K:          43       -
  ZERO_HALF_KL:          72       1
   ZERO_HALF_R:      33'336  19'851

LNS stats       Improv/Calls  Closed  Difficulty  TimeLimit
  'rins/rens':     4581/4581     50%    7.46e-01       0.10

LS stats                                    Batches  Restarts/Perturbs    LinMoves   GenMoves  CompoundMoves  Bactracks  WeightUpdates  ScoreComputed
                             'fj_restart':      212                 64   6'403'623          0              0          0      5'695'913         79'442
                    'fj_restart_compound':      286                 78           0  3'289'127        209'682  1'539'568          7'450     51'659'847
                'fj_restart_compound_obj':      211                 61           0  2'433'121        148'354  1'142'247          5'708     38'166'569
            'fj_restart_compound_perturb':      157                 65           0  1'739'790        140'718    799'387          3'559     28'232'151
        'fj_restart_compound_perturb_obj':      233                 89           0  2'611'183        201'577  1'204'560          5'523     42'042'216
                       'fj_restart_decay':      245                 73   8'307'389          0              0          0        362'579        405'196
              'fj_restart_decay_compound':      497                 64           0  6'539'444      1'088'907  2'725'119          6'876     91'505'868
          'fj_restart_decay_compound_obj':      624                 70           0  8'270'327      1'357'885  3'456'048          8'646    114'825'170
      'fj_restart_decay_compound_perturb':      336                 66           0  4'306'339        711'025  1'797'494          4'681     61'619'648
  'fj_restart_decay_compound_perturb_obj':      225                 68           0  2'795'209        456'635  1'169'153          3'155     41'028'722
                   'fj_restart_decay_obj':      160                 55   5'422'665          0              0          0        236'852        262'887
               'fj_restart_decay_perturb':      212                 81   7'176'000          0              0          0        313'732        347'259
           'fj_restart_decay_perturb_obj':      396                 61  13'433'416          0              0          0        587'066        656'143
                         'fj_restart_obj':      479                 78  13'523'901          0              0          0     13'195'060        156'153
                     'fj_restart_perturb':      158                 61   4'683'653          0              0          0      4'222'636         59'645
                 'fj_restart_perturb_obj':      150                 63   4'452'247          0              0          0      3'951'157         57'777

Solution repositories    Added  Queried  Synchro
    'alternative_path':      0        0        0
      'best_solutions':      0        0        0
   'fj solution hints':  1'089        0    1'089
        'lp solutions':    247    4'582      244
                'pump':      0        0

Improving bounds shared    Num  Sym
            'default_lp':   13    0
                'max_lp':    5    0
                 'no_lp':  123    0

Clauses shared    #Exported  #Imported  #BinaryRead  #BinaryTotal
   'default_lp':      6'487     52'594        1'253         1'891
       'max_lp':      4'199     55'032        1'317         1'891
        'no_lp':     53'007      9'359        1'891         1'891

LRAT_status: NA
CpSolverResponse summary:
status: INFEASIBLE
objective: NA
best_bound: NA
integers: 339
booleans: 481
conflicts: 9760246
branches: 14405229
propagations: 796375205
integer_propagations: 160542021
restarts: 36868
lp_iterations: 0
walltime: 766.732
usertime: 766.732
deterministic_time: 5598.48
gap_integral: 0

{
  "board_size": 22,
  "parity_proved": 0,
  "target": 34,
  "child_id": 1131,
  "child_count": 2640,
  "partition": "unknown_pair_x_diag_plus_twos_x_diag_minus_twos",
  "build_seconds": 0.05308938026428223,
  "workers": 4,
  "requested_seed": 2026073231,
  "effective_seed": 2026073231,
  "main_diagonal_pair": [
    2,
    19
  ],
  "pair_index": 56,
  "diag_plus_twos": 16,
  "diag_minus_twos": 15,
  "pair_excess": 0,
  "residual_certificate_slack": 112,
  "analytic_minimum_line_defect": 46,
  "analytic_defect_details": {
    "row_costs": {
      "12": 6,
      "13": 3,
      "14": 0,
      "15": 0,
      "16": 0,
      "17": 0
    },
    "column_costs": {
      "12": 6,
      "13": 3,
      "14": 0,
      "15": 0,
      "16": 0,
      "17": 0
    },
    "plus_cost": 24,
    "minus_cost": 22,
    "row_column_minimum": 0
  },
  "maximal_line_constraints": 2455,
  "analytic_infeasible": false,
  "allowed_points": 242,
  "status": "INFEASIBLE",
  "proof_method": "cp_sat_all_lines_with_certificate_profile_cuts",
  "elapsed_seconds": 766.7329740524292,
  "branches": 14405229,
  "conflicts": 9760246
}
